Ti  O Ti  O Sr Ti  O Sr Ti  O Sr  O Sr  O Sr Ti  O Sr Ti  O 
 1.0000000000000000
     7.8830000000000000    0.0000000000000000    0.0000000000000000
     0.0000000000000000    7.8830000000000000    0.0000000000000000
     0.0000000000000000    0.0000000000000000    7.8994999999999997
 Ti  O   Ti  O   Sr  Ti  O   Sr  Ti  O   Sr  O   Sr  O   Sr  Ti  O   Sr  Ti  O  
   1   2   1   4   1   2   4   1   2   4   1   2   1   2   2   1   4   2   1   2
Cartesian
  3.9415000000000000  0.0000000000000000  0.0000000000000000
  1.9707500000000000  0.0000000000000000  0.0000000000000000
  3.9415000000000000  0.0000000000000000  1.9748749999999999
  3.9415000000000000  0.0000000000000000  3.9497499999999999
  3.9415000000000000  1.9707500000000000  0.0000000000000000
  5.9122500000000002  0.0000000000000000  3.9497499999999999
  3.9415000000000000  1.9707500000000000  3.9497499999999999
  3.9415000000000000  0.0000000000000000  5.9246249999999998
  1.9707500000000000  1.9707500000000000  1.9748749999999999
  0.0000000000000000  0.0000000000000000  0.0000000000000000
  0.0000000000000000  3.9415000000000000  0.0000000000000000
  0.0000000000000000  1.9707500000000000  3.9497499999999999
  1.9707500000000000  3.9415000000000000  0.0000000000000000
  0.0000000000000000  3.9415000000000000  1.9748749999999999
  0.0000000000000000  0.0000000000000000  1.9748749999999999
  1.9707500000000000  1.9707500000000000  5.9246249999999998
  0.0000000000000000  3.9415000000000000  3.9497499999999999
  0.0000000000000000  0.0000000000000000  3.9497499999999999
  0.0000000000000000  5.9122500000000002  0.0000000000000000
  1.9707500000000000  3.9415000000000000  3.9497499999999999
  0.0000000000000000  0.0000000000000000  5.9246249999999998
  0.0000000000000000  3.9415000000000000  5.9246249999999998
  5.9122500000000002  1.9707500000000000  1.9748749999999999
  5.9122500000000002  3.9415000000000000  0.0000000000000000
  7.8830000000000000  1.9707500000000000  0.0000000000000000
  5.9122500000000002  1.9707500000000000  5.9246249999999998
  5.9122500000000002  3.9415000000000000  3.9497499999999999
  7.8830000000000000  5.9122500000000002  3.9497499999999999
  5.9122500000000002  5.9122500000000002  1.9748749999999999
  1.9707500000000000  5.9122500000000002  1.9748749999999999
  3.9415000000000000  3.9415000000000000  0.0000000000000000
  3.9415000000000000  5.9122500000000002  3.9497499999999999
  5.9122500000000002  7.8830000000000000  0.0000000000000000
  3.9415000000000000  5.9122500000000002  0.0000000000000000
  3.9415000000000000  3.9415000000000000  1.9748749999999999
  1.9707500000000000  5.9122500000000002  5.9246249999999998
  5.9122500000000002  5.9122500000000002  5.9246249999999998
  3.9415000000000000  3.9415000000000000  3.9497499999999999
  1.9707500000000000  7.8830000000000000  3.9497499999999999
  3.9415000000000000  3.9415000000000000  5.9246249999999998
