H 
 1.0000000000000000
     10.0    0.0000000000000000    0.0000000000000000
     0.0000000000000000    10.0    0.0000000000000000
     0.0000000000000000    0.0000000000000000    10.0
 H 
   2   
Cartesian
  0.11481834  0.0000000000000000  0.0000000000000000
  0.88518166  0.0000000000000000  0.0000000000000000
